(set-info :smt-lib-version 2.6)
(set-logic QF_BV)
(declare-fun _substvar_1844_ () (_ BitVec 1))
(declare-fun _substvar_1760_ () (_ BitVec 1))
(declare-fun _substvar_1752_ () (_ BitVec 4))
(declare-fun _substvar_1842_ () (_ BitVec 1))
(declare-fun _substvar_1845_ () (_ BitVec 1))
(declare-fun _substvar_1753_ () (_ BitVec 3))
(declare-fun _substvar_1757_ () (_ BitVec 1))
(declare-fun _substvar_1761_ () (_ BitVec 1))
(declare-fun _substvar_1996_ () (_ BitVec 33))
(declare-fun _substvar_1850_ () (_ BitVec 1))
(declare-fun _substvar_1997_ () (_ BitVec 33))
(declare-fun _substvar_1994_ () (_ BitVec 33))
(declare-fun _substvar_1846_ () (_ BitVec 1))
(declare-fun _substvar_1843_ () (_ BitVec 1))
(declare-fun _substvar_1756_ () (_ BitVec 231))
(declare-fun _substvar_1995_ () (_ BitVec 33))
(declare-fun _substvar_1992_ () (_ BitVec 33))
(declare-fun _substvar_1847_ () (_ BitVec 1))
(declare-fun _substvar_2001_ () (_ BitVec 33))
(declare-fun _substvar_2000_ () (_ BitVec 33))
(declare-fun _substvar_1851_ () (_ BitVec 1))
(declare-fun _substvar_1999_ () (_ BitVec 33))
(declare-fun _substvar_1755_ () (_ BitVec 1))
(declare-fun _substvar_1758_ () (_ BitVec 1))
(declare-fun _substvar_1754_ () (_ BitVec 2))
(declare-fun _substvar_1849_ () (_ BitVec 1))
(declare-fun _substvar_1993_ () (_ BitVec 33))
(declare-fun _substvar_1848_ () (_ BitVec 1))
(declare-fun _substvar_1759_ () (_ BitVec 1))
(declare-fun _substvar_1998_ () (_ BitVec 33))
(set-info :source |
  Christoph Erkinger, "Rotating Workforce Scheduling as Satisfiability Modulo
  Theories", Master's Thesis, Technische Universitaet Wien, 2013
|)
(set-info :category "industrial")
(set-info :status sat)
(declare-fun shift0 () (_ BitVec 231))
(declare-fun shift1 () (_ BitVec 231))
(declare-fun shift2 () (_ BitVec 231))
(define-fun bitsumhelper ((x (_ BitVec 33))) (_ BitVec 33) (bvand x (bvsub x (_ bv1 33))))
(assert (not (= (_ bv0 33) (bitsumhelper (bitsumhelper (bitsumhelper (bitsumhelper (bitsumhelper (bitsumhelper (bitsumhelper (bitsumhelper (bitsumhelper (bitsumhelper (bitsumhelper (concat ((_ extract 0 0) _substvar_1756_) (concat (_ bv0 1) (concat ((_ extract 14 14) _substvar_1756_) (concat ((_ extract 21 21) _substvar_1756_) (concat ((_ extract 28 28) _substvar_1756_) (concat ((_ extract 35 35) _substvar_1756_) (concat ((_ extract 42 42) _substvar_1756_) (concat (_ bv0 1) (concat (_ bv0 1) (concat (_ bv0 1) (concat (_ bv0 1) (concat ((_ extract 77 77) _substvar_1756_) (concat ((_ extract 84 84) _substvar_1756_) (concat ((_ extract 91 91) _substvar_1756_) (concat ((_ extract 98 98) _substvar_1756_) (concat ((_ extract 105 105) _substvar_1756_) (concat ((_ extract 112 112) _substvar_1756_) (concat ((_ extract 119 119) _substvar_1756_) (concat ((_ extract 126 126) _substvar_1756_) (concat ((_ extract 133 133) _substvar_1756_) (concat ((_ extract 140 140) _substvar_1756_) (concat ((_ extract 147 147) _substvar_1756_) (concat ((_ extract 154 154) _substvar_1756_) (concat ((_ extract 161 161) _substvar_1756_) (concat ((_ extract 168 168) _substvar_1756_) (concat ((_ extract 175 175) _substvar_1756_) (concat ((_ extract 182 182) _substvar_1756_) (concat _substvar_1761_ (concat _substvar_1760_ _substvar_1752_)))))))))))))))))))))))))))))))))))))))))))
(assert (not (= (_ bv0 33) (bitsumhelper (bitsumhelper (bitsumhelper (bitsumhelper (bitsumhelper (bitsumhelper (bitsumhelper (bitsumhelper (bitsumhelper (bitsumhelper (bitsumhelper (concat ((_ extract 1 1) _substvar_1756_) (concat ((_ extract 8 8) _substvar_1756_) (concat (_ bv0 1) (concat _substvar_1851_ (concat _substvar_1850_ (concat _substvar_1849_ (concat _substvar_1848_ (concat _substvar_1847_ (concat _substvar_1846_ (concat _substvar_1845_ (concat _substvar_1844_ (concat _substvar_1843_ (concat (_ bv0 1) (concat (_ bv0 1) (concat (_ bv0 1) (concat _substvar_1842_ (concat ((_ extract 113 113) _substvar_1756_) (concat ((_ extract 120 120) _substvar_1756_) (concat ((_ extract 127 127) _substvar_1756_) (concat ((_ extract 134 134) _substvar_1756_) (concat ((_ extract 141 141) _substvar_1756_) (concat ((_ extract 148 148) _substvar_1756_) (concat ((_ extract 155 155) _substvar_1756_) (concat ((_ extract 162 162) _substvar_1756_) (concat (_ bv0 1) (concat (_ bv0 1) (concat ((_ extract 183 183) _substvar_1756_) (concat ((_ extract 190 190) _substvar_1756_) (concat ((_ extract 197 197) _substvar_1756_) (concat ((_ extract 204 204) _substvar_1756_) (concat ((_ extract 211 211) _substvar_1756_) (concat ((_ extract 218 218) _substvar_1756_) ((_ extract 225 225) _substvar_1756_)))))))))))))))))))))))))))))))))))))))))))))))
(assert (= (_ bv0 33) (bitsumhelper (bitsumhelper (bitsumhelper (bitsumhelper (bitsumhelper (bitsumhelper (bitsumhelper (bitsumhelper (bitsumhelper (bitsumhelper (bitsumhelper (bitsumhelper (concat ((_ extract 3 3) _substvar_1756_) (concat ((_ extract 10 10) _substvar_1756_) (concat (_ bv0 1) (concat (_ bv0 1) (concat (_ bv0 1) (concat ((_ extract 38 38) _substvar_1756_) (concat ((_ extract 45 45) _substvar_1756_) (concat ((_ extract 52 52) _substvar_1756_) (concat ((_ extract 59 59) _substvar_1756_) (concat ((_ extract 66 66) _substvar_1756_) (concat ((_ extract 73 73) _substvar_1756_) (concat ((_ extract 80 80) _substvar_1756_) (concat ((_ extract 87 87) _substvar_1756_) (concat ((_ extract 94 94) _substvar_1756_) (concat ((_ extract 101 101) _substvar_1756_) (concat ((_ extract 108 108) _substvar_1756_) (concat ((_ extract 115 115) _substvar_1756_) (concat ((_ extract 122 122) _substvar_1756_) (concat ((_ extract 129 129) _substvar_1756_) (concat ((_ extract 136 136) _substvar_1756_) (concat ((_ extract 143 143) _substvar_1756_) (concat ((_ extract 150 150) _substvar_1756_) (concat ((_ extract 157 157) _substvar_1756_) (concat ((_ extract 164 164) _substvar_1756_) (concat ((_ extract 171 171) _substvar_1756_) (concat ((_ extract 178 178) _substvar_1756_) (concat ((_ extract 185 185) _substvar_1756_) (concat ((_ extract 192 192) _substvar_1756_) (concat ((_ extract 199 199) _substvar_1756_) (concat ((_ extract 206 206) _substvar_1756_) (concat ((_ extract 213 213) _substvar_1756_) (_ bv0 2))))))))))))))))))))))))))))))))))))))))))))))
(assert (= (_ bv0 33) (bitsumhelper (bitsumhelper (bitsumhelper (bitsumhelper (bitsumhelper (bitsumhelper (bitsumhelper (bitsumhelper (bitsumhelper (bitsumhelper (bitsumhelper (concat ((_ extract 4 4) _substvar_1756_) (concat (_ bv0 1) (concat (_ bv0 1) (concat (_ bv0 1) (concat (_ bv0 1) (concat (_ bv0 1) (concat (_ bv0 1) (concat (_ bv0 1) (concat (_ bv0 1) (concat (_ bv0 1) (concat (_ bv0 1) (concat (_ bv0 1) (concat (_ bv0 1) (concat ((_ extract 95 95) _substvar_1756_) (concat ((_ extract 102 102) _substvar_1756_) (concat ((_ extract 109 109) _substvar_1756_) (concat ((_ extract 116 116) _substvar_1756_) (concat ((_ extract 123 123) _substvar_1756_) (concat ((_ extract 130 130) _substvar_1756_) (concat ((_ extract 137 137) _substvar_1756_) (concat ((_ extract 144 144) _substvar_1756_) (concat ((_ extract 151 151) _substvar_1756_) (concat ((_ extract 158 158) _substvar_1756_) (concat ((_ extract 165 165) _substvar_1756_) (concat ((_ extract 172 172) _substvar_1756_) (concat ((_ extract 179 179) _substvar_1756_) (concat ((_ extract 186 186) _substvar_1756_) (concat ((_ extract 193 193) _substvar_1756_) (concat ((_ extract 200 200) _substvar_1756_) (concat ((_ extract 207 207) _substvar_1756_) (concat ((_ extract 214 214) _substvar_1756_) (concat ((_ extract 221 221) _substvar_1756_) ((_ extract 228 228) _substvar_1756_))))))))))))))))))))))))))))))))))))))))))))))
(assert (= (_ bv0 33) (bitsumhelper (bitsumhelper (bitsumhelper _substvar_1992_)))))
(declare-fun noncyclic_workblocks () (_ BitVec 462))
(declare-fun workblocks_justTrailingOnes () (_ BitVec 231))
(declare-fun workblocks_withoutTrailingOnes () (_ BitVec 231))
(declare-fun workblock_helper () (_ BitVec 462))
(declare-fun noncyclic_shift0 () (_ BitVec 462))
(declare-fun shift0_justTrailingOnes () (_ BitVec 231))
(declare-fun shift0_withoutTrailingOnes () (_ BitVec 231))
(declare-fun shift0_helper () (_ BitVec 462))
(declare-fun noncyclic_shift1 () (_ BitVec 462))
(declare-fun shift1_justTrailingOnes () (_ BitVec 231))
(declare-fun shift1_withoutTrailingOnes () (_ BitVec 231))
(declare-fun shift1_helper () (_ BitVec 462))
(declare-fun noncyclic_shift2 () (_ BitVec 462))
(declare-fun shift2_justTrailingOnes () (_ BitVec 231))
(declare-fun shift2_withoutTrailingOnes () (_ BitVec 231))
(declare-fun shift2_helper () (_ BitVec 462))
(check-sat)
(exit)
